%chk=C:\Users\Administrator\Desktop\dataset_dft\C13H12O2_2.chk
# opt=rfo b3lyp/6-31++g geom=connectivity

Title Card Required

0 1
 C(PDBName=C,ResName=MOL,ResNum=1)                 
 C(PDBName=C,ResName=MOL,ResNum=1)                     1            B1
 C(PDBName=C,ResName=MOL,ResNum=1)                     2            B2    1            A1
 C(PDBName=C,ResName=MOL,ResNum=1)                     3            B3    2            A2    1            D1    0
 C(PDBName=C,ResName=MOL,ResNum=1)                     4            B4    3            A3    2            D2    0
 C(PDBName=C,ResName=MOL,ResNum=1)                     1            B5    2            A4    3            D3    0
 H(PDBName=H,ResName=MOL,ResNum=1)                     2            B6    1            A5    6            D4    0
 H(PDBName=H,ResName=MOL,ResNum=1)                     4            B7    3            A6    2            D5    0
 H(PDBName=H,ResName=MOL,ResNum=1)                     5            B8    4            A7    3            D6    0
 H(PDBName=H,ResName=MOL,ResNum=1)                     1            B9    6            A8    5            D7    0
 C(PDBName=C,ResName=MOL,ResNum=1)                     3           B10    2            A9    1            D8    0
 C(PDBName=C,ResName=MOL,ResNum=1)                    11           B11    3           A10    2            D9    0
 C(PDBName=C,ResName=MOL,ResNum=1)                    12           B12   11           A11    3           D10    0
 C(PDBName=C,ResName=MOL,ResNum=1)                    13           B13   12           A12   11           D11    0
 C(PDBName=C,ResName=MOL,ResNum=1)                    14           B14   13           A13   12           D12    0
 C(PDBName=C,ResName=MOL,ResNum=1)                    11           B15    3           A14    2           D13    0
 H(PDBName=H,ResName=MOL,ResNum=1)                    13           B16   12           A15   11           D14    0
 H(PDBName=H,ResName=MOL,ResNum=1)                    16           B17   11           A16    3           D15    0
 H(PDBName=H,ResName=MOL,ResNum=1)                    11           B18    3           A17    2           D16    0
 C(PDBName=C,ResName=MOL,ResNum=1)                    12           B19   11           A18    3           D17    0
 H(PDBName=H,ResName=MOL,ResNum=1)                    20           B20   12           A19   11           D18    0
 H(PDBName=H,ResName=MOL,ResNum=1)                    20           B21   12           A20   11           D19    0
 O(PDBName=O,ResName=MOL,ResNum=1)                     6           B22    1           A21    2           D20    0
 O(PDBName=O,ResName=MOL,ResNum=1)                    14           B23   13           A22   12           D21    0
 H(PDBName=H,ResName=MOL,ResNum=1)                    24           B24   14           A23   13           D22    0
 H(PDBName=H,ResName=MOL,ResNum=1)                    15           B25   14           A24   13           D23    0
 H(PDBName=H,ResName=MOL,ResNum=1)                    23           B26    6           A25    1           D24    0

   B1             1.39909786
   B2             1.40617268
   B3             1.40600776
   B4             1.39916814
   B5             1.39684307
   B6             1.08691367
   B7             1.08636102
   B8             1.08741012
   B9             1.08406123
   B10            3.13811798
   B11            1.40968776
   B12            1.40101860
   B13            1.39991589
   B14            1.39805360
   B15            1.39754563
   B16            1.08508008
   B17            1.08587699
   B18            1.08567209
   B19            1.52345645
   B20            1.09865091
   B21            1.09872165
   B22            1.40030379
   B23            1.40010916
   B24            0.97610754
   B25            1.08701729
   B26            0.97613495
   A1           121.47937897
   A2           118.04145961
   A3           121.16350198
   A4           119.34702314
   A5           119.08110177
   A6           119.62235255
   A7           120.02618152
   A8           119.17746713
   A9           117.54150214
   A10           53.64282897
   A11          119.01648927
   A12          120.26837256
   A13          120.91622370
   A14          157.51972874
   A15          121.10875315
   A16          119.92171402
   A17           70.28417703
   A18          120.72174062
   A19          108.53142083
   A20          109.08876855
   A21          116.90736758
   A22          116.36393924
   A23          112.47761822
   A24          120.69406148
   A25          112.48657120
   D1            -0.08336761
   D2             0.14483452
   D3            -0.02539969
   D4           179.91814889
   D5          -179.38214824
   D6           179.97535734
   D7          -179.87009629
   D8          -119.04817310
   D9          -138.84342037
   D10         -153.77296264
   D11           -0.10675148
   D12           -0.03736590
   D13          139.28984620
   D14         -179.92488399
   D15         -112.74525369
   D16           17.70910900
   D17           27.18217674
   D18         -179.56814961
   D19           65.33561897
   D20          179.95709245
   D21          179.86887266
   D22          179.56841719
   D23         -179.99802962
   D24          179.99368728

 1 2 1.5 6 1.5 10 1.0
 2 3 1.5 7 1.0
 3 4 1.5 20 1.0
 4 5 1.5 8 1.0
 5 6 1.5 9 1.0
 6 23 1.0
 7
 8
 9
 10
 11 12 1.5 16 1.5 19 1.0
 12 13 1.5 20 1.0
 13 14 1.5 17 1.0
 14 15 1.5 24 1.0
 15 16 1.5 26 1.0
 16 18 1.0
 17
 18
 19
 20 21 1.0 22 1.0
 21
 22
 23 27 1.0
 24 25 1.0
 25
 26
 27


