%nprocshared=24
%mem=300MW
%chk=C:\Users\Administrator\Desktop\dataset_dft\C12H8O1\C12H8O1.chk
# scan b3lyp/6-31++g(d,p) nosymm

Title Card Required

0 1
 C(PDBName=C,ResName=MOL,ResNum=1)                 
 C(PDBName=C,ResName=MOL,ResNum=1)                     1            B1
 C(PDBName=C,ResName=MOL,ResNum=1)                     2            B2    1            A1
 C(PDBName=C,ResName=MOL,ResNum=1)                     3            B3    2            A2    1            D1    0
 C(PDBName=C,ResName=MOL,ResNum=1)                     4            B4    3            A3    2            D2    0
 C(PDBName=C,ResName=MOL,ResNum=1)                     1            B5    2            A4    3            D3    0
 H(PDBName=H,ResName=MOL,ResNum=1)                     2            B6    1            A5    6            D4    0
 H(PDBName=H,ResName=MOL,ResNum=1)                     4            B7    3            A6    2            D5    0
 H(PDBName=H,ResName=MOL,ResNum=1)                     5            B8    4            A7    3            D6    0
 H(PDBName=H,ResName=MOL,ResNum=1)                     6            B9    1            A8    2            D7    0
 C(PDBName=C,ResName=MOL,ResNum=1)                     3           B10    2            A9    1            D8    0
 C(PDBName=C,ResName=MOL,ResNum=1)                    11           B11    3           A10    2            D9    0
 C(PDBName=C,ResName=MOL,ResNum=1)                    12           B12   11           A11    3           D10    0
 C(PDBName=C,ResName=MOL,ResNum=1)                    13           B13   12           A12   11           D11    0
 C(PDBName=C,ResName=MOL,ResNum=1)                    14           B14   13           A13   12           D12    0
 C(PDBName=C,ResName=MOL,ResNum=1)                    11           B15    3           A14    2           D13    0
 H(PDBName=H,ResName=MOL,ResNum=1)                    11           B16    3           A15    2           D14    0
 H(PDBName=H,ResName=MOL,ResNum=1)                    13           B17   12           A16   11           D15    0
 H(PDBName=H,ResName=MOL,ResNum=1)                    15           B18   14           A17   13           D16    0
 H(PDBName=H,ResName=MOL,ResNum=1)                    16           B19   11           A18    3           D17    0
 O(PDBName=O,ResName=MOL,ResNum=1)                     1           B20    2           A19    3           D18    0
 H(PDBName=H,ResName=MOL,ResNum=1)                    21           B21    1           A20    2           D19    0
 O(PDBName=O,ResName=MOL,ResNum=1)                    14           B22   13           A21   12           D20    0
 H(PDBName=H,ResName=MOL,ResNum=1)                    23           B23   14           A22   13           D21    0

   B1             1.39684352
   B2             1.40566177
   B3             1.41179032
   B4             1.39784746
   B5             1.39974604
   B6             1.08377443
   B7             1.08469057
   B8             1.08572449
   B9             1.08689980
   B10            1.00000000 20 0.100000
   B11            1.41178219
   B12            1.40566277
   B13            1.39683626
   B14            1.39974003
   B15            1.39784535
   B16            1.08469048
   B17            1.08377405
   B18            1.08689849
   B19            1.08572389
   B20            1.39926578
   B21            0.97606460
   B22            1.39926674
   B23            0.97606210
   A1           120.23923713
   A2           118.79555313
   A3           120.38119222
   A4           121.07395517
   A5           118.56101291
   A6           119.77543270
   A7           119.82979799
   A8           120.67782004
   A9           140.29771399
   A10           30.48552467
   A11          118.79548680
   A12          120.23916573
   A13          121.07427695
   A14          150.86674439
   A15           89.30036269
   A16          121.17852371
   A17          120.67759185
   A18          119.82972693
   A19          116.34219571
   A20          112.54208895
   A21          116.34260438
   A22          112.54228066
   D1             0.07286603
   D2            -0.12156953
   D3             0.03261648
   D4          -178.30755606
   D5           178.22807918
   D6           179.45253791
   D7           179.98668724
   D8          -152.17279942
   D9           -56.90229417
   D10          179.89453484
   D11            0.06188313
   D12            0.02845186
   D13          -56.90496464
   D14          121.65928858
   D15          178.36768164
   D16          179.94281548
   D17          179.46521627
   D18          179.59313149
   D19         -179.28709963
   D20          179.58659130
   D21         -179.32487547


 4 5 1.0 8 1.0
 5 6 1.0 9 1.0
 6 10 1.0
 7
 8
 9
 10
 11 12 1.0 16 1.0 17 1.0
 12 13 1.0
 13 14 1.0 18 1.0
 14 15 1.0 23 1.0
 15 16 1.0 19 1.0
 16 20 1.0
 17
 18
 19
 20
 21 22 1.0
 22
 23 24 1.0
 24








